
;this file is automatically generated: Mon Feb 10 17:04:08 CST 2020

;declarations generated

(declare-fun Gender ( Int) Int)
(declare-fun oclExcludes ( Int Int) Bool)
(declare-fun k5ca4f9f6_7baa_4871_9619_f611ea3b84ee () Int)
(declare-fun Cardinality ( Int) Int)
(declare-fun rel_e2c14a9b_f96c_4026_a665_2f4cb48e597f_study ( Int Int) Bool)
(declare-fun student_year ( Int) Int)
(declare-fun type_e4732e16_f81f_4068_bc29_22d5f6f91505_Person ( Int) Bool)
(declare-fun k188a4434_851b_4c03_8805_249b3645b346 () Int)
(declare-fun type_e4732e16_f81f_4068_bc29_22d5f6f91505_Student ( Int) Bool)
(declare-fun oclSelect ( Int Bool) Int)
(declare-fun type_e4732e16_f81f_4068_bc29_22d5f6f91505_Module ( Int) Bool)
(declare-fun module_year ( Int) Int)
(declare-fun container_ ( Int) Int)
(declare-fun obj_a81dbe9f_cda5_49a1_bef8_56a7d474f93e ( Int) Int)
(declare-fun oclIncludes ( Int Int) Bool)
(declare-fun ObjAt ( Int Int) Int)

;formula(s) generated
(assert (forall ((x Int)(y Int)) (=> (and ( rel_e2c14a9b_f96c_4026_a665_2f4cb48e597f_study ( obj_a81dbe9f_cda5_49a1_bef8_56a7d474f93e x )   ( obj_a81dbe9f_cda5_49a1_bef8_56a7d474f93e y )  )  (and (and ( type_e4732e16_f81f_4068_bc29_22d5f6f91505_Student x )  ( type_e4732e16_f81f_4068_bc29_22d5f6f91505_Person x ) ) ( type_e4732e16_f81f_4068_bc29_22d5f6f91505_Module y ) )) (or (or (or (= (* ( Cardinality ( container_ x )  )  0) (* ( Cardinality ( container_ y )  )  1)) (and (= (* ( Cardinality ( container_ y )  )  1) (* ( Cardinality ( container_ x )  )  k5ca4f9f6_7baa_4871_9619_f611ea3b84ee)) (>= k5ca4f9f6_7baa_4871_9619_f611ea3b84ee 0))) (= (* ( Cardinality ( container_ x )  )  0) (* ( Cardinality ( container_ y )  )  1))) (and (= (* ( Cardinality ( container_ y )  )  1) (* ( Cardinality ( container_ x )  )  k188a4434_851b_4c03_8805_249b3645b346)) (>= k188a4434_851b_4c03_8805_249b3645b346 0))))))
(assert (! (and (forall ((v Int)) (=> (and ( type_e4732e16_f81f_4068_bc29_22d5f6f91505_Student v )  ( type_e4732e16_f81f_4068_bc29_22d5f6f91505_Person v ) ) (>= ( student_year ( obj_a81dbe9f_cda5_49a1_bef8_56a7d474f93e v )  )  1))) (forall ((v Int)) (=> (and ( type_e4732e16_f81f_4068_bc29_22d5f6f91505_Student v )  ( type_e4732e16_f81f_4068_bc29_22d5f6f91505_Person v ) ) (<= ( student_year ( obj_a81dbe9f_cda5_49a1_bef8_56a7d474f93e v )  )  6)))):named l0))
(assert (! (and (exists ((s Int)) (and (and ( type_e4732e16_f81f_4068_bc29_22d5f6f91505_Student s )  ( type_e4732e16_f81f_4068_bc29_22d5f6f91505_Person s ) ) (= ( student_year ( obj_a81dbe9f_cda5_49a1_bef8_56a7d474f93e s )  )  6))) (exists ((s Int)) (and (and ( type_e4732e16_f81f_4068_bc29_22d5f6f91505_Student s )  ( type_e4732e16_f81f_4068_bc29_22d5f6f91505_Person s ) ) (< ( student_year ( obj_a81dbe9f_cda5_49a1_bef8_56a7d474f93e s )  )  6)))):named l1))
(assert (! (forall ((s1 Int)) (=> (and ( type_e4732e16_f81f_4068_bc29_22d5f6f91505_Student s1 )  ( type_e4732e16_f81f_4068_bc29_22d5f6f91505_Person s1 ) ) (forall ((m1 Int)) (=> (and ( type_e4732e16_f81f_4068_bc29_22d5f6f91505_Module m1 )  ( rel_e2c14a9b_f96c_4026_a665_2f4cb48e597f_study ( obj_a81dbe9f_cda5_49a1_bef8_56a7d474f93e s1 )   ( obj_a81dbe9f_cda5_49a1_bef8_56a7d474f93e m1 )  ) ) (= ( student_year ( obj_a81dbe9f_cda5_49a1_bef8_56a7d474f93e s1 )  )  ( module_year ( obj_a81dbe9f_cda5_49a1_bef8_56a7d474f93e m1 )  ) ))))):named l2))
(assert (! (and (forall ((v Int)) (=> ( type_e4732e16_f81f_4068_bc29_22d5f6f91505_Module v )  (>= ( module_year ( obj_a81dbe9f_cda5_49a1_bef8_56a7d474f93e v )  )  1))) (forall ((v Int)) (=> ( type_e4732e16_f81f_4068_bc29_22d5f6f91505_Module v )  (<= ( module_year ( obj_a81dbe9f_cda5_49a1_bef8_56a7d474f93e v )  )  5)))):named l3))
(assert (! (forall ((s Int)) (=> (and ( type_e4732e16_f81f_4068_bc29_22d5f6f91505_Student s )  ( type_e4732e16_f81f_4068_bc29_22d5f6f91505_Person s ) ) (exists ((v Int)) (and ( type_e4732e16_f81f_4068_bc29_22d5f6f91505_Module v )  ( rel_e2c14a9b_f96c_4026_a665_2f4cb48e597f_study ( obj_a81dbe9f_cda5_49a1_bef8_56a7d474f93e s )   ( obj_a81dbe9f_cda5_49a1_bef8_56a7d474f93e v )  ) )))):named l4))
(assert (exists ((o Int)) (and ( type_e4732e16_f81f_4068_bc29_22d5f6f91505_Student ( obj_a81dbe9f_cda5_49a1_bef8_56a7d474f93e o )  )  ( type_e4732e16_f81f_4068_bc29_22d5f6f91505_Person ( obj_a81dbe9f_cda5_49a1_bef8_56a7d474f93e o )  ) )))
(assert (exists ((o Int)) (and (and ( type_e4732e16_f81f_4068_bc29_22d5f6f91505_Student ( obj_a81dbe9f_cda5_49a1_bef8_56a7d474f93e o )  )  ( type_e4732e16_f81f_4068_bc29_22d5f6f91505_Person ( obj_a81dbe9f_cda5_49a1_bef8_56a7d474f93e o )  ) ) ( type_e4732e16_f81f_4068_bc29_22d5f6f91505_Module ( obj_a81dbe9f_cda5_49a1_bef8_56a7d474f93e o )  ) )))

 ;end of formula 